c uprop, v00.0, 
c reading from data/prog936.c.cnf
c done reading: 0.002276
p cnf 139 640
-55 -70 0
55 70 0
-64 -66 0
64 66 0
-59 -61 0
59 61 0
-57 -68 0
57 68 0
-52 -60 0
52 60 0
-48 -50 0
48 50 0
-47 70 0
47 -70 0
-66 73 0
66 -73 0
66 -73 -74 0
-73 -74 0
-66 73 74 0
73 74 0
-61 -70 75 0
-61 -73 75 0
-70 -73 75 0
61 70 -75 0
61 73 -75 0
70 73 -75 0
61 -75 -76 0
70 -75 -76 0
73 -75 -76 0
-61 75 76 0
-70 75 76 0
-73 75 76 0
-61 -70 -73 76 0
61 70 73 -76 0
-57 -66 77 0
-57 -75 77 0
-66 -75 77 0
57 66 -77 0
57 75 -77 0
66 75 -77 0
57 -77 -78 0
66 -77 -78 0
75 -77 -78 0
-57 77 78 0
-66 77 78 0
-75 77 78 0
-57 -66 -75 78 0
57 66 75 -78 0
-52 -61 79 0
-52 -77 79 0
-61 -77 79 0
52 61 -79 0
52 77 -79 0
61 77 -79 0
52 -79 -80 0
61 -79 -80 0
77 -79 -80 0
-52 79 80 0
-61 79 80 0
-77 79 80 0
-52 -61 -77 80 0
52 61 77 -80 0
-48 -57 81 0
-48 -79 81 0
-57 -79 81 0
48 57 -81 0
48 79 -81 0
57 79 -81 0
48 -81 -82 0
57 -81 -82 0
79 -81 -82 0
-48 81 82 0
-57 81 82 0
-79 81 82 0
-48 -57 -79 82 0
48 57 79 -82 0
52 -83 0
81 -83 0
-52 -81 83 0
-52 -81 -84 0
52 81 -84 0
-52 81 84 0
52 -81 84 0
48 -72 0
-72 83 0
-48 72 -83 0
-48 -69 -83 0
48 -69 83 0
-48 69 83 0
48 69 -83 0
-47 -51 0
47 51 0
-74 -87 0
74 87 0
-46 -76 0
46 76 0
-43 -78 0
43 78 0
-40 -80 0
40 80 0
-37 -82 0
37 82 0
-36 -84 0
36 84 0
-35 -69 0
35 69 0
-34 -72 0
34 72 0
-33 -85 0
-31 -33 0
31 33 85 0
-30 31 85 0
-30 -31 -85 0
30 31 -85 0
30 -31 85 0
-29 33 0
-29 -44 0
29 -33 44 0
-28 -33 44 0
-28 33 -44 0
28 33 44 0
28 -33 -44 0
-27 29 0
-25 -27 0
25 27 -29 0
-24 25 -29 0
-24 -25 29 0
24 25 29 0
24 -25 -29 0
-23 27 0
-23 -41 0
23 -27 41 0
-22 -27 41 0
-22 27 -41 0
22 27 41 0
22 -27 -41 0
-21 23 0
-19 -21 0
19 21 -23 0
-18 19 -23 0
-18 -19 23 0
18 19 23 0
18 -19 -23 0
-17 21 0
-17 -38 0
17 -21 38 0
-16 -21 38 0
-16 21 -38 0
16 21 38 0
16 -21 -38 0
17 -54 0
-14 -54 0
14 -17 54 0
-13 14 -17 0
-13 -14 17 0
13 14 17 0
13 -14 -17 0
31 -63 0
-63 85 0
-31 63 -85 0
-31 -85 -88 0
31 85 -88 0
-31 85 88 0
31 -85 88 0
-31 -44 89 0
-44 -63 89 0
-31 -63 89 0
31 44 -89 0
44 63 -89 0
31 63 -89 0
44 -89 -90 0
31 -89 -90 0
63 -89 -90 0
-44 89 90 0
-31 89 90 0
-63 89 90 0
-31 -44 -63 90 0
31 44 63 -90 0
-25 -44 91 0
-25 -89 91 0
-44 -89 91 0
25 44 -91 0
25 89 -91 0
44 89 -91 0
25 -91 -92 0
44 -91 -92 0
89 -91 -92 0
-25 91 92 0
-44 91 92 0
-89 91 92 0
-25 -44 -89 92 0
25 44 89 -92 0
-25 -41 93 0
-41 -91 93 0
-25 -91 93 0
25 41 -93 0
41 91 -93 0
25 91 -93 0
41 -93 -94 0
25 -93 -94 0
91 -93 -94 0
-41 93 94 0
-25 93 94 0
-91 93 94 0
-25 -41 -91 94 0
25 41 91 -94 0
-19 -41 95 0
-19 -93 95 0
-41 -93 95 0
19 41 -95 0
19 93 -95 0
41 93 -95 0
19 -95 -96 0
41 -95 -96 0
93 -95 -96 0
-19 95 96 0
-41 95 96 0
-93 95 96 0
-19 -41 -93 96 0
19 41 93 -96 0
-19 -38 97 0
-38 -95 97 0
-19 -95 97 0
19 38 -97 0
38 95 -97 0
19 95 -97 0
38 -97 -98 0
19 -97 -98 0
95 -97 -98 0
-38 97 98 0
-19 97 98 0
-95 97 98 0
-19 -38 -95 98 0
19 38 95 -98 0
-14 -38 99 0
-14 -97 99 0
-38 -97 99 0
14 38 -99 0
14 97 -99 0
38 97 -99 0
14 -99 -100 0
38 -99 -100 0
97 -99 -100 0
-14 99 100 0
-38 99 100 0
-97 99 100 0
-14 -38 -97 100 0
14 38 97 -100 0
14 -101 0
99 -101 0
-14 -99 101 0
-14 -99 -102 0
14 99 -102 0
-14 99 102 0
14 -99 102 0
90 -103 0
85 -103 0
-85 -90 103 0
-85 -90 -104 0
85 90 -104 0
85 -90 104 0
-85 90 104 0
-31 -92 105 0
-92 -103 105 0
-31 -103 105 0
31 92 -105 0
92 103 -105 0
31 103 -105 0
92 -105 -106 0
31 -105 -106 0
103 -105 -106 0
-92 105 106 0
-31 105 106 0
-103 105 106 0
-31 -92 -103 106 0
31 92 103 -106 0
-44 -94 107 0
-94 -105 107 0
-44 -105 107 0
44 94 -107 0
94 105 -107 0
44 105 -107 0
94 -107 -108 0
44 -107 -108 0
105 -107 -108 0
-94 107 108 0
-44 107 108 0
-105 107 108 0
-44 -94 -105 108 0
44 94 105 -108 0
-25 -96 109 0
-96 -107 109 0
-25 -107 109 0
25 96 -109 0
96 107 -109 0
25 107 -109 0
96 -109 -110 0
25 -109 -110 0
107 -109 -110 0
-96 109 110 0
-25 109 110 0
-107 109 110 0
-25 -96 -107 110 0
25 96 107 -110 0
-41 -98 111 0
-98 -109 111 0
-41 -109 111 0
41 98 -111 0
98 109 -111 0
41 109 -111 0
98 -111 -112 0
41 -111 -112 0
109 -111 -112 0
-98 111 112 0
-41 111 112 0
-109 111 112 0
-41 -98 -109 112 0
41 98 109 -112 0
-19 -100 113 0
-100 -111 113 0
-19 -111 113 0
19 100 -113 0
100 111 -113 0
19 111 -113 0
100 -113 -114 0
19 -113 -114 0
111 -113 -114 0
-100 113 114 0
-19 113 114 0
-111 113 114 0
-19 -100 -111 114 0
19 100 111 -114 0
-38 -102 115 0
-102 -113 115 0
-38 -113 115 0
38 102 -115 0
102 113 -115 0
38 113 -115 0
102 -115 -116 0
38 -115 -116 0
113 -115 -116 0
-102 115 116 0
-38 115 116 0
-113 115 116 0
-38 -102 -113 116 0
38 102 113 -116 0
-14 -101 117 0
-101 -115 117 0
-14 -115 117 0
14 101 -117 0
101 115 -117 0
14 115 -117 0
101 -117 -118 0
14 -117 -118 0
115 -117 -118 0
-101 117 118 0
-14 117 118 0
-115 117 118 0
-14 -101 -115 118 0
14 101 115 -118 0
106 -119 0
85 -119 0
-85 -106 119 0
-71 -85 -106 0
-71 85 106 0
71 85 -106 0
71 -85 106 0
-31 67 -108 0
67 -108 -119 0
-31 67 -119 0
31 -67 108 0
-67 108 119 0
31 -67 119 0
-62 -67 108 0
31 -62 -67 0
-62 -67 119 0
62 67 -108 0
-31 62 67 0
62 67 -119 0
-31 62 -108 -119 0
31 -62 108 119 0
-44 58 -110 0
58 -67 -110 0
-44 58 -67 0
44 -58 110 0
-58 67 110 0
44 -58 67 0
-53 -58 110 0
44 -53 -58 0
-53 -58 67 0
53 58 -110 0
-44 53 58 0
53 58 -67 0
-44 53 -67 -110 0
44 -53 67 110 0
-25 49 -112 0
49 -58 -112 0
-25 49 -58 0
25 -49 112 0
-49 58 112 0
25 -49 58 0
-49 -86 112 0
25 -49 -86 0
-49 58 -86 0
49 86 -112 0
-25 49 86 0
49 -58 86 0
-25 -58 86 -112 0
25 58 -86 112 0
32 -41 -114 0
32 -49 -114 0
32 -41 -49 0
-32 41 114 0
-32 49 114 0
-32 41 49 0
-32 -45 114 0
-32 41 -45 0
-32 -45 49 0
32 45 -114 0
32 -41 45 0
32 45 -49 0
-41 45 -49 -114 0
41 -45 49 114 0
-19 26 -116 0
26 -32 -116 0
-19 26 -32 0
19 -26 116 0
-26 32 116 0
19 -26 32 0
-26 -42 116 0
19 -26 -42 0
-26 32 -42 0
26 42 -116 0
-19 26 42 0
26 -32 42 0
-19 -32 42 -116 0
19 32 -42 116 0
20 -38 -118 0
20 -26 -118 0
20 -26 -38 0
-20 38 118 0
-20 26 118 0
-20 26 38 0
-20 -39 118 0
-20 38 -39 0
-20 26 -39 0
20 39 -118 0
20 -38 39 0
20 -26 39 0
-26 -38 39 -118 0
26 38 -39 118 0
-14 15 -117 0
15 -20 -117 0
-14 15 -20 0
14 -15 117 0
-15 20 117 0
14 -15 20 0
-15 117 -120 0
14 -15 -120 0
-15 20 -120 0
15 -117 120 0
-14 15 120 0
15 -20 120 0
-14 -20 -117 120 0
14 20 117 -120 0
-85 -121 0
-88 -121 0
85 88 121 0
85 88 -122 0
-85 -88 -122 0
-85 88 122 0
85 -88 122 0
121 -123 0
-104 -123 0
104 -121 123 0
104 -121 -124 0
-104 121 -124 0
104 121 124 0
-104 -121 124 0
123 -125 0
-71 -125 0
71 -123 125 0
71 -123 -126 0
-71 123 -126 0
71 123 126 0
-71 -123 126 0
125 -127 0
-62 -127 0
62 -125 127 0
62 -125 -128 0
-62 125 -128 0
62 125 128 0
-62 -125 128 0
127 -129 0
-53 -129 0
53 -127 129 0
53 -127 -130 0
-53 127 -130 0
53 127 130 0
-53 -127 130 0
129 -131 0
-86 -131 0
86 -129 131 0
86 -129 -132 0
-86 129 -132 0
86 129 132 0
-86 -129 132 0
131 -133 0
-45 -133 0
45 -131 133 0
45 -131 -134 0
-45 131 -134 0
45 131 134 0
-45 -131 134 0
133 -135 0
-42 -135 0
42 -133 135 0
42 -133 -136 0
-42 133 -136 0
42 133 136 0
-42 -133 136 0
135 -137 0
-39 -137 0
39 -135 137 0
39 -135 -138 0
-39 135 -138 0
39 135 138 0
-39 -135 138 0
-56 137 0
-56 -120 0
56 120 -137 0
120 -137 -139 0
-120 137 -139 0
120 137 139 0
-120 -137 139 0
56 -65 0
-15 -65 0
15 -56 65 0
-12 15 -56 0
-12 -15 56 0
12 15 56 0
12 -15 -56 0
-11 47 0
-11 85 0
11 -47 -85 0
-47 85 0
47 -85 0
10 -74 -88 0
10 -11 -74 0
10 -11 -88 0
-10 74 88 0
-10 11 74 0
-10 11 88 0
10 -74 0
10 -88 0
10 -11 0
-11 -74 -88 0
9 -76 -104 0
9 -10 -76 0
9 -10 -104 0
-9 76 104 0
-9 10 76 0
-9 10 104 0
-9 76 0
-9 104 0
-9 10 0
10 76 104 0
8 -71 -78 0
8 -9 -78 0
8 -9 -71 0
-8 71 78 0
-8 9 78 0
-8 9 71 0
8 -78 0
8 -71 0
8 -9 0
-9 -71 -78 0
7 -62 -80 0
7 -8 -80 0
7 -8 -62 0
-7 62 80 0
-7 8 80 0
-7 8 62 0
-7 80 0
-7 62 0
-7 8 0
8 62 80 0
6 -53 -82 0
6 -7 -82 0
6 -7 -53 0
-6 53 82 0
-6 7 82 0
-6 7 53 0
-6 82 0
-6 53 0
-6 7 0
7 53 82 0
5 -84 -86 0
5 -6 -84 0
5 -6 -86 0
-5 84 86 0
-5 6 84 0
-5 6 86 0
5 -84 0
5 -86 0
5 -6 0
-6 -84 -86 0
4 -45 -69 0
4 -5 -69 0
4 -5 -45 0
-4 45 69 0
-4 5 69 0
-4 5 45 0
4 -69 0
4 -45 0
4 -5 0
-5 -45 -69 0
3 -42 -72 0
3 -4 -72 0
3 -4 -42 0
-3 42 72 0
-3 4 72 0
-3 4 42 0
3 -72 0
3 -42 0
3 -4 0
-4 -42 -72 0
-2 39 0
-2 3 0
2 -3 -39 0
3 -39 0
-3 39 0
-1 120 0
-1 2 0
1 -2 -120 0
2 -120 0
-2 120 0
-1 -15 0
1 -15 0
-1 15 0
